p cnf 120 496
1 2 0
-1 -2 0
25 26 0
-25 -26 0
49 50 0
-49 -50 0
73 74 0
-73 -74 0
97 98 0
-97 -98 0
3 4 0
-3 -4 0
27 28 0
-27 -28 0
51 52 0
-51 -52 0
75 76 0
-75 -76 0
99 100 0
-99 -100 0
5 6 0
-5 -6 0
29 30 0
-29 -30 0
53 54 0
-53 -54 0
77 78 0
-77 -78 0
101 102 0
-101 -102 0
7 8 0
-7 -8 0
31 32 0
-31 -32 0
55 56 0
-55 -56 0
79 80 0
-79 -80 0
103 104 0
-103 -104 0
9 10 0
-9 -10 0
33 34 0
-33 -34 0
57 58 0
-57 -58 0
81 82 0
-81 -82 0
105 106 0
-105 -106 0
11 12 0
-11 -12 0
35 36 0
-35 -36 0
59 60 0
-59 -60 0
83 84 0
-83 -84 0
107 108 0
-107 -108 0
13 14 0
-13 -14 0
37 38 0
-37 -38 0
61 62 0
-61 -62 0
85 86 0
-85 -86 0
109 110 0
-109 -110 0
15 16 0
-15 -16 0
39 40 0
-39 -40 0
63 64 0
-63 -64 0
87 88 0
-87 -88 0
111 112 0
-111 -112 0
17 18 0
-17 -18 0
41 42 0
-41 -42 0
65 66 0
-65 -66 0
89 90 0
-89 -90 0
113 114 0
-113 -114 0
19 20 0
-19 -20 0
43 44 0
-43 -44 0
67 68 0
-67 -68 0
91 92 0
-91 -92 0
115 116 0
-115 -116 0
21 22 0
-21 -22 0
45 46 0
-45 -46 0
69 70 0
-69 -70 0
93 94 0
-93 -94 0
117 118 0
-117 -118 0
23 24 0
-23 -24 0
47 48 0
-47 -48 0
71 72 0
-71 -72 0
95 96 0
-95 -96 0
119 120 0
-119 -120 0
-1 -25 4 0
-1 -26 4 0
-2 -25 4 0
-2 -26 3 0
-25 -1 -49 28 0
-25 -2 -49 28 0
-25 -1 -50 28 0
-25 -2 -50 28 0
-26 -1 -49 28 0
-26 -2 -49 28 0
-26 -1 -50 28 0
-26 -2 -50 27 0
-49 -25 -73 52 0
-49 -26 -73 52 0
-49 -25 -74 52 0
-49 -26 -74 52 0
-50 -25 -73 52 0
-50 -26 -73 52 0
-50 -25 -74 52 0
-50 -26 -74 51 0
-73 -49 -97 76 0
-73 -50 -97 76 0
-73 -49 -98 76 0
-73 -50 -98 76 0
-74 -49 -97 76 0
-74 -50 -97 76 0
-74 -49 -98 76 0
-74 -50 -98 75 0
-97 -73 100 0
-97 -74 100 0
-98 -73 100 0
-98 -74 99 0
-3 -27 6 0
-3 -28 6 0
-4 -27 6 0
-4 -28 5 0
-27 -3 -51 30 0
-27 -4 -51 30 0
-27 -3 -52 30 0
-27 -4 -52 30 0
-28 -3 -51 30 0
-28 -4 -51 30 0
-28 -3 -52 30 0
-28 -4 -52 29 0
-51 -27 -75 54 0
-51 -28 -75 54 0
-51 -27 -76 54 0
-51 -28 -76 54 0
-52 -27 -75 54 0
-52 -28 -75 54 0
-52 -27 -76 54 0
-52 -28 -76 53 0
-75 -51 -99 78 0
-75 -52 -99 78 0
-75 -51 -100 78 0
-75 -52 -100 78 0
-76 -51 -99 78 0
-76 -52 -99 78 0
-76 -51 -100 78 0
-76 -52 -100 77 0
-99 -75 102 0
-99 -76 102 0
-100 -75 102 0
-100 -76 101 0
-5 -29 8 0
-5 -30 8 0
-6 -29 8 0
-6 -30 7 0
-29 -5 -53 32 0
-29 -6 -53 32 0
-29 -5 -54 32 0
-29 -6 -54 32 0
-30 -5 -53 32 0
-30 -6 -53 32 0
-30 -5 -54 32 0
-30 -6 -54 31 0
-53 -29 -77 56 0
-53 -30 -77 56 0
-53 -29 -78 56 0
-53 -30 -78 56 0
-54 -29 -77 56 0
-54 -30 -77 56 0
-54 -29 -78 56 0
-54 -30 -78 55 0
-77 -53 -101 80 0
-77 -54 -101 80 0
-77 -53 -102 80 0
-77 -54 -102 80 0
-78 -53 -101 80 0
-78 -54 -101 80 0
-78 -53 -102 80 0
-78 -54 -102 79 0
-101 -77 104 0
-101 -78 104 0
-102 -77 104 0
-102 -78 103 0
-7 -31 10 0
-7 -32 10 0
-8 -31 10 0
-8 -32 9 0
-31 -7 -55 34 0
-31 -8 -55 34 0
-31 -7 -56 34 0
-31 -8 -56 34 0
-32 -7 -55 34 0
-32 -8 -55 34 0
-32 -7 -56 34 0
-32 -8 -56 33 0
-55 -31 -79 58 0
-55 -32 -79 58 0
-55 -31 -80 58 0
-55 -32 -80 58 0
-56 -31 -79 58 0
-56 -32 -79 58 0
-56 -31 -80 58 0
-56 -32 -80 57 0
-79 -55 -103 82 0
-79 -56 -103 82 0
-79 -55 -104 82 0
-79 -56 -104 82 0
-80 -55 -103 82 0
-80 -56 -103 82 0
-80 -55 -104 82 0
-80 -56 -104 81 0
-103 -79 106 0
-103 -80 106 0
-104 -79 106 0
-104 -80 105 0
-9 -33 12 0
-9 -34 12 0
-10 -33 12 0
-10 -34 11 0
-33 -9 -57 36 0
-33 -10 -57 36 0
-33 -9 -58 36 0
-33 -10 -58 36 0
-34 -9 -57 36 0
-34 -10 -57 36 0
-34 -9 -58 36 0
-34 -10 -58 35 0
-57 -33 -81 60 0
-57 -34 -81 60 0
-57 -33 -82 60 0
-57 -34 -82 60 0
-58 -33 -81 60 0
-58 -34 -81 60 0
-58 -33 -82 60 0
-58 -34 -82 59 0
-81 -57 -105 84 0
-81 -58 -105 84 0
-81 -57 -106 84 0
-81 -58 -106 84 0
-82 -57 -105 84 0
-82 -58 -105 84 0
-82 -57 -106 84 0
-82 -58 -106 83 0
-105 -81 108 0
-105 -82 108 0
-106 -81 108 0
-106 -82 107 0
-11 -35 14 0
-11 -36 14 0
-12 -35 14 0
-12 -36 13 0
-35 -11 -59 38 0
-35 -12 -59 38 0
-35 -11 -60 38 0
-35 -12 -60 38 0
-36 -11 -59 38 0
-36 -12 -59 38 0
-36 -11 -60 38 0
-36 -12 -60 37 0
-59 -35 -83 62 0
-59 -36 -83 62 0
-59 -35 -84 62 0
-59 -36 -84 62 0
-60 -35 -83 62 0
-60 -36 -83 62 0
-60 -35 -84 62 0
-60 -36 -84 61 0
-83 -59 -107 86 0
-83 -60 -107 86 0
-83 -59 -108 86 0
-83 -60 -108 86 0
-84 -59 -107 86 0
-84 -60 -107 86 0
-84 -59 -108 86 0
-84 -60 -108 85 0
-107 -83 110 0
-107 -84 110 0
-108 -83 110 0
-108 -84 109 0
-13 -37 16 0
-13 -38 16 0
-14 -37 16 0
-14 -38 15 0
-37 -13 -61 40 0
-37 -14 -61 40 0
-37 -13 -62 40 0
-37 -14 -62 40 0
-38 -13 -61 40 0
-38 -14 -61 40 0
-38 -13 -62 40 0
-38 -14 -62 39 0
-61 -37 -85 64 0
-61 -38 -85 64 0
-61 -37 -86 64 0
-61 -38 -86 64 0
-62 -37 -85 64 0
-62 -38 -85 64 0
-62 -37 -86 64 0
-62 -38 -86 63 0
-85 -61 -109 88 0
-85 -62 -109 88 0
-85 -61 -110 88 0
-85 -62 -110 88 0
-86 -61 -109 88 0
-86 -62 -109 88 0
-86 -61 -110 88 0
-86 -62 -110 87 0
-109 -85 112 0
-109 -86 112 0
-110 -85 112 0
-110 -86 111 0
-15 -39 18 0
-15 -40 18 0
-16 -39 18 0
-16 -40 17 0
-39 -15 -63 42 0
-39 -16 -63 42 0
-39 -15 -64 42 0
-39 -16 -64 42 0
-40 -15 -63 42 0
-40 -16 -63 42 0
-40 -15 -64 42 0
-40 -16 -64 41 0
-63 -39 -87 66 0
-63 -40 -87 66 0
-63 -39 -88 66 0
-63 -40 -88 66 0
-64 -39 -87 66 0
-64 -40 -87 66 0
-64 -39 -88 66 0
-64 -40 -88 65 0
-87 -63 -111 90 0
-87 -64 -111 90 0
-87 -63 -112 90 0
-87 -64 -112 90 0
-88 -63 -111 90 0
-88 -64 -111 90 0
-88 -63 -112 90 0
-88 -64 -112 89 0
-111 -87 114 0
-111 -88 114 0
-112 -87 114 0
-112 -88 113 0
-17 -41 20 0
-17 -42 20 0
-18 -41 20 0
-18 -42 19 0
-41 -17 -65 44 0
-41 -18 -65 44 0
-41 -17 -66 44 0
-41 -18 -66 44 0
-42 -17 -65 44 0
-42 -18 -65 44 0
-42 -17 -66 44 0
-42 -18 -66 43 0
-65 -41 -89 68 0
-65 -42 -89 68 0
-65 -41 -90 68 0
-65 -42 -90 68 0
-66 -41 -89 68 0
-66 -42 -89 68 0
-66 -41 -90 68 0
-66 -42 -90 67 0
-89 -65 -113 92 0
-89 -66 -113 92 0
-89 -65 -114 92 0
-89 -66 -114 92 0
-90 -65 -113 92 0
-90 -66 -113 92 0
-90 -65 -114 92 0
-90 -66 -114 91 0
-113 -89 116 0
-113 -90 116 0
-114 -89 116 0
-114 -90 115 0
-19 -43 22 0
-19 -44 22 0
-20 -43 22 0
-20 -44 21 0
-43 -19 -67 46 0
-43 -20 -67 46 0
-43 -19 -68 46 0
-43 -20 -68 46 0
-44 -19 -67 46 0
-44 -20 -67 46 0
-44 -19 -68 46 0
-44 -20 -68 45 0
-67 -43 -91 70 0
-67 -44 -91 70 0
-67 -43 -92 70 0
-67 -44 -92 70 0
-68 -43 -91 70 0
-68 -44 -91 70 0
-68 -43 -92 70 0
-68 -44 -92 69 0
-91 -67 -115 94 0
-91 -68 -115 94 0
-91 -67 -116 94 0
-91 -68 -116 94 0
-92 -67 -115 94 0
-92 -68 -115 94 0
-92 -67 -116 94 0
-92 -68 -116 93 0
-115 -91 118 0
-115 -92 118 0
-116 -91 118 0
-116 -92 117 0
-21 -45 24 0
-21 -46 24 0
-22 -45 24 0
-22 -46 23 0
-45 -21 -69 48 0
-45 -22 -69 48 0
-45 -21 -70 48 0
-45 -22 -70 48 0
-46 -21 -69 48 0
-46 -22 -69 48 0
-46 -21 -70 48 0
-46 -22 -70 47 0
-69 -45 -93 72 0
-69 -46 -93 72 0
-69 -45 -94 72 0
-69 -46 -94 72 0
-70 -45 -93 72 0
-70 -46 -93 72 0
-70 -45 -94 72 0
-70 -46 -94 71 0
-93 -69 -117 96 0
-93 -70 -117 96 0
-93 -69 -118 96 0
-93 -70 -118 96 0
-94 -69 -117 96 0
-94 -70 -117 96 0
-94 -69 -118 96 0
-94 -70 -118 95 0
-117 -93 120 0
-117 -94 120 0
-118 -93 120 0
-118 -94 119 0
-23 -47 -71 -95 -119 0
-24 -48 -72 -96 -120 0
-1 -25 -49 -73 -97 0
-2 -26 -50 -74 -98 0
-3 -27 -51 -75 -99 0
-4 -28 -52 -76 -100 0
-5 -29 -53 -77 -101 0
-6 -30 -54 -78 -102 0
-7 -31 -55 -79 -103 0
-8 -32 -56 -80 -104 0
-9 -33 -57 -81 -105 0
-10 -34 -58 -82 -106 0
-11 -35 -59 -83 -107 0
-12 -36 -60 -84 -108 0
-13 -37 -61 -85 -109 0
-14 -38 -62 -86 -110 0
-15 -39 -63 -87 -111 0
-16 -40 -64 -88 -112 0
-17 -41 -65 -89 -113 0
-18 -42 -66 -90 -114 0
-19 -43 -67 -91 -115 0
-20 -44 -68 -92 -116 0
-21 -45 -69 -93 -117 0
-22 -46 -70 -94 -118 0
